NAME : local_2
TYPE : ATSP
DIMENSION : 32
EDGE_WEIGHT_TYPE : EXPLICIT
EDGE_WEIGHT_FORMAT : FULL_MATRIX
EDGE_WEIGHT_SECTION
0 619 10000000 10000000 431 10000000 10000000 10000000 858 987 10000000 10000000 305 10000000 10000000 999 10000000 184 10000000 10000000 10000000 10000000 1056 798 10000000 551 10000000 10000000 913 10000000 10000000 10000000 
0 0 10000000 10000000 874 716 10000000 10000000 10000000 10000000 10000000 10000000 898 10000000 10000000 743 10000000 676 10000000 10000000 10000000 10000000 559 304 10000000 10000000 10000000 10000000 958 10000000 10000000 10000000 
0 10000000 0 408 10000000 10000000 685 886 10000000 10000000 10000000 10000000 10000000 118 250 10000000 10000000 10000000 10000000 212 10000000 832 918 10000000 756 10000000 856 10000000 10000000 558 10000000 10000000 
0 10000000 408 0 10000000 10000000 526 759 10000000 10000000 731 902 10000000 510 651 10000000 990 10000000 10000000 207 10000000 426 10000000 10000000 420 1036 587 923 10000000 378 10000000 10000000 
0 874 10000000 10000000 0 10000000 10000000 10000000 428 559 10000000 10000000 514 10000000 10000000 894 10000000 253 975 10000000 604 10000000 10000000 944 1033 353 934 10000000 632 10000000 743 10000000 
0 716 10000000 10000000 10000000 0 659 489 10000000 10000000 10000000 10000000 10000000 10000000 10000000 345 10000000 1021 10000000 10000000 10000000 10000000 325 444 10000000 10000000 10000000 597 723 10000000 807 696 
0 10000000 685 526 10000000 659 0 240 10000000 10000000 705 967 10000000 799 903 894 647 10000000 10000000 533 10000000 690 722 895 822 10000000 1073 414 10000000 894 10000000 10000000 
0 10000000 886 759 10000000 489 240 0 10000000 10000000 817 10000000 10000000 994 10000000 718 598 10000000 10000000 757 10000000 880 639 824 10000000 10000000 10000000 224 938 10000000 1042 831 
0 10000000 10000000 10000000 428 10000000 10000000 10000000 0 171 10000000 10000000 883 10000000 10000000 10000000 10000000 681 588 10000000 321 1070 10000000 10000000 1009 537 950 10000000 613 10000000 655 10000000 
0 10000000 10000000 10000000 559 10000000 10000000 10000000 171 0 10000000 10000000 10000000 10000000 10000000 988 10000000 805 424 10000000 188 10000000 10000000 10000000 10000000 708 10000000 10000000 556 10000000 562 10000000 
0 10000000 10000000 731 10000000 10000000 705 817 10000000 10000000 0 283 10000000 10000000 10000000 10000000 503 10000000 10000000 907 10000000 424 10000000 10000000 713 10000000 892 798 10000000 944 10000000 10000000 
0 10000000 10000000 902 10000000 10000000 967 10000000 10000000 10000000 283 0 10000000 10000000 10000000 10000000 718 10000000 10000000 10000000 10000000 502 10000000 10000000 749 10000000 887 10000000 10000000 10000000 10000000 10000000 
0 898 10000000 10000000 514 10000000 10000000 10000000 883 10000000 10000000 10000000 0 10000000 10000000 10000000 10000000 379 10000000 10000000 10000000 10000000 10000000 10000000 1054 414 903 10000000 10000000 10000000 10000000 10000000 
0 10000000 118 510 10000000 10000000 799 994 10000000 10000000 10000000 10000000 10000000 0 143 10000000 10000000 10000000 10000000 324 10000000 928 973 10000000 827 10000000 908 10000000 10000000 595 10000000 10000000 
0 10000000 250 651 10000000 10000000 903 10000000 10000000 10000000 10000000 10000000 10000000 143 0 10000000 10000000 10000000 10000000 462 10000000 10000000 980 10000000 957 10000000 10000000 10000000 10000000 715 10000000 10000000 
0 743 10000000 10000000 894 345 894 718 10000000 988 10000000 10000000 10000000 10000000 10000000 0 10000000 898 10000000 10000000 837 10000000 604 579 10000000 10000000 10000000 769 460 10000000 529 498 
0 10000000 10000000 990 10000000 10000000 647 598 10000000 10000000 503 718 10000000 10000000 10000000 10000000 0 10000000 10000000 10000000 10000000 838 10000000 10000000 10000000 10000000 10000000 449 10000000 10000000 10000000 924 
0 676 10000000 10000000 253 1033 10000000 10000000 681 805 10000000 10000000 379 10000000 10000000 898 10000000 0 10000000 10000000 825 10000000 1012 805 10000000 459 1060 10000000 752 10000000 880 10000000 
0 10000000 10000000 10000000 975 10000000 10000000 10000000 588 424 10000000 10000000 10000000 10000000 10000000 10000000 10000000 10000000 0 10000000 403 10000000 10000000 10000000 10000000 10000000 10000000 10000000 734 10000000 656 969 
0 10000000 212 207 10000000 10000000 533 757 10000000 10000000 907 10000000 10000000 324 462 10000000 10000000 10000000 10000000 0 10000000 632 926 10000000 598 10000000 735 947 10000000 471 10000000 10000000 
0 10000000 10000000 10000000 604 10000000 10000000 10000000 321 188 10000000 10000000 10000000 10000000 10000000 837 10000000 825 403 10000000 0 10000000 10000000 10000000 10000000 823 10000000 10000000 394 10000000 380 820 
0 10000000 832 426 10000000 10000000 690 880 1048 10000000 424 502 10000000 928 10000000 10000000 838 10000000 10000000 632 10000000 0 10000000 10000000 295 1102 487 966 10000000 533 10000000 10000000 
0 559 918 10000000 10000000 325 722 639 10000000 10000000 10000000 10000000 10000000 973 980 604 10000000 988 10000000 926 10000000 10000000 0 260 10000000 10000000 10000000 810 960 10000000 10000000 10000000 
0 304 10000000 10000000 944 444 895 824 10000000 10000000 10000000 10000000 10000000 10000000 10000000 579 10000000 805 10000000 10000000 10000000 10000000 260 0 10000000 10000000 10000000 994 895 10000000 10000000 10000000 
0 10000000 756 420 1019 10000000 822 10000000 1012 10000000 713 749 1053 827 957 10000000 10000000 10000000 10000000 598 10000000 295 10000000 10000000 0 768 238 10000000 10000000 324 10000000 10000000 
0 10000000 10000000 1020 353 10000000 10000000 10000000 537 708 10000000 10000000 414 10000000 10000000 10000000 10000000 459 10000000 10000000 823 1027 10000000 10000000 798 0 644 10000000 951 972 10000000 10000000 
0 10000000 856 587 964 10000000 1080 10000000 952 10000000 892 887 883 908 10000000 10000000 10000000 1074 10000000 735 10000000 487 10000000 10000000 238 644 0 10000000 10000000 368 10000000 10000000 
0 10000000 10000000 923 10000000 597 414 224 10000000 10000000 798 10000000 10000000 10000000 10000000 769 449 10000000 10000000 947 10000000 966 810 994 10000000 10000000 10000000 0 931 10000000 969 740 
0 958 10000000 10000000 632 723 10000000 1009 613 556 10000000 10000000 10000000 10000000 10000000 460 10000000 752 734 10000000 394 10000000 960 895 10000000 951 10000000 947 0 10000000 139 565 
0 10000000 558 378 10000000 10000000 894 10000000 10000000 10000000 944 10000000 10000000 595 715 10000000 10000000 10000000 10000000 471 10000000 533 10000000 10000000 324 970 368 10000000 10000000 0 10000000 10000000 
0 10000000 10000000 10000000 743 807 10000000 1103 655 562 10000000 10000000 10000000 10000000 10000000 529 10000000 880 656 10000000 380 10000000 10000000 10000000 10000000 10000000 10000000 966 139 10000000 0 506 
0 10000000 10000000 10000000 10000000 10000000 10000000 10000000 10000000 10000000 10000000 10000000 10000000 10000000 10000000 10000000 10000000 10000000 10000000 10000000 10000000 10000000 10000000 10000000 10000000 10000000 10000000 10000000 10000000 10000000 10000000 0 
EOF